p min 185 510
n 1 4
n 167 -1
n 171 -1
n 172 -1
n 173 -1
a 1 2 0 1 0
a 1 27 0 1 0
a 1 55 0 1 0
a 1 56 0 1 0
a 2 3 0 4 0
a 2 34 0 4 78887
a 2 57 0 4 118212
a 2 111 0 4 -100
a 3 4 0 4 0
a 3 36 0 4 78808
a 3 59 0 4 118094
a 3 112 0 4 -100
a 4 5 0 4 0
a 4 38 0 4 78729
a 4 61 0 4 117976
a 4 113 0 4 -100
a 4 179 0 1 0
a 5 6 0 4 0
a 5 39 0 4 78690
a 5 62 0 4 117917
a 5 114 0 4 -100
a 5 179 0 1 39199
a 6 7 0 4 0
a 6 40 0 4 78651
a 6 63 0 4 117858
a 6 115 0 4 -100
a 6 179 0 1 100664
a 7 8 0 4 0
a 7 41 0 4 78611
a 7 64 0 4 117799
a 7 116 0 4 -100
a 7 179 0 1 138312
a 8 9 0 4 0
a 8 42 0 4 78572
a 8 117 0 4 -100
a 8 179 0 1 197343
a 8 185 0 1 0
a 9 10 0 4 0
a 9 118 0 4 -100
a 9 179 0 1 233500
a 9 185 0 1 39198
a 10 11 0 4 0
a 10 119 0 4 -100
a 10 185 0 1 100663
a 11 12 0 4 0
a 11 120 0 4 -100
a 11 185 0 1 138311
a 12 13 0 4 0
a 12 21 0 4 117153
a 12 43 0 4 77868
a 12 65 0 4 116802
a 12 121 0 4 -100
a 12 185 0 1 197342
a 13 14 0 4 0
a 13 97 0 4 110661
a 13 170 0 4 -100
a 14 173 0 4 -100
a 15 16 0 4 0
a 15 105 0 4 -100
a 15 182 0 1 0
a 16 17 0 4 0
a 16 106 0 4 -100
a 16 182 0 1 39199
a 17 18 0 4 0
a 17 107 0 4 -100
a 17 182 0 1 100664
a 18 19 0 4 0
a 18 108 0 4 -100
a 18 182 0 1 138312
a 19 20 0 4 0
a 19 109 0 4 -100
a 19 182 0 1 197343
a 20 2 0 4 118924
a 20 21 0 4 0
a 20 34 0 4 138053
a 20 57 0 4 157617
a 20 110 0 4 -100
a 20 182 0 1 233500
a 21 22 0 4 0
a 21 43 0 4 136269
a 21 65 0 4 155736
a 21 123 0 4 -100
a 22 23 0 4 0
a 22 161 0 4 -100
a 22 176 0 1 0
a 23 24 0 4 0
a 23 162 0 4 -100
a 23 176 0 1 39199
a 24 25 0 4 0
a 24 51 0 4 131581
a 24 163 0 4 -100
a 24 176 0 1 100664
a 25 26 0 4 0
a 25 164 0 4 -100
a 25 176 0 1 138312
a 26 13 0 4 111550
a 26 52 0 4 130271
a 26 97 0 4 147548
a 26 165 0 4 -100
a 26 176 0 1 197343
a 27 28 0 4 0
a 27 98 0 4 -100
a 28 15 0 4 139440
a 28 29 0 4 0
a 28 99 0 4 -100
a 28 178 0 1 0
a 29 16 0 4 139371
a 29 30 0 4 0
a 29 100 0 4 -100
a 29 178 0 1 39199
a 30 17 0 4 139301
a 30 31 0 4 0
a 30 56 0 4 79680
a 30 101 0 4 -100
a 30 178 0 1 100664
a 31 18 0 4 139231
a 31 32 0 4 0
a 31 102 0 4 -100
a 31 178 0 1 138312
a 32 19 0 4 139162
a 32 33 0 4 0
a 32 103 0 4 -100
a 32 178 0 1 197343
a 33 2 0 4 79283
a 33 20 0 4 139092
a 33 34 0 4 0
a 33 57 0 4 78808
a 33 104 0 4 -100
a 33 178 0 1 233500
a 34 8 0 4 78729
a 34 35 0 4 0
a 34 59 0 4 78729
a 34 113 0 4 -100
a 34 183 0 1 0
a 35 9 0 4 78690
a 35 36 0 4 0
a 35 60 0 4 78690
a 35 114 0 4 -100
a 35 183 0 1 39199
a 36 10 0 4 78651
a 36 37 0 4 0
a 36 61 0 4 78651
a 36 115 0 4 -100
a 36 183 0 1 100664
a 37 11 0 4 78611
a 37 38 0 4 0
a 37 62 0 4 78611
a 37 116 0 4 -100
a 37 183 0 1 138312
a 38 12 0 4 78572
a 38 39 0 4 0
a 38 63 0 4 78572
a 38 117 0 4 -100
a 38 183 0 1 197343
a 39 40 0 4 0
a 39 64 0 4 78533
a 39 118 0 4 -100
a 39 183 0 1 233500
a 40 41 0 4 0
a 40 119 0 4 -100
a 40 183 0 1 290194
a 41 42 0 4 0
a 41 120 0 4 -100
a 41 183 0 1 324919
a 42 21 0 4 136679
a 42 43 0 4 0
a 42 65 0 4 77868
a 42 121 0 4 -100
a 42 183 0 1 379368
a 43 44 0 4 0
a 43 69 0 4 77712
a 43 124 0 4 -100
a 43 175 0 1 0
a 44 45 0 4 0
a 44 70 0 4 77673
a 44 125 0 4 -100
a 44 175 0 1 39199
a 45 46 0 4 0
a 45 71 0 4 77635
a 45 126 0 4 -100
a 45 175 0 1 100664
a 46 47 0 4 0
a 46 156 0 4 -100
a 46 180 0 1 0
a 47 48 0 4 0
a 47 157 0 4 -100
a 47 180 0 1 39199
a 48 49 0 4 0
a 48 158 0 4 -100
a 48 180 0 1 100664
a 49 50 0 4 0
a 49 159 0 4 -100
a 49 180 0 1 138312
a 50 22 0 4 132109
a 50 51 0 4 0
a 50 160 0 4 -100
a 50 180 0 1 197343
a 51 13 0 4 74366
a 51 52 0 4 0
a 51 166 0 4 -100
a 52 53 0 4 0
a 52 168 0 4 -100
a 52 177 0 1 0
a 53 54 0 4 0
a 53 169 0 4 -100
a 53 177 0 1 39199
a 54 14 0 4 73774
a 54 97 0 4 73774
a 54 170 0 4 -100
a 54 177 0 1 100664
a 55 15 0 4 159361
a 55 32 0 4 79768
a 55 56 0 4 0
a 55 99 0 4 -100
a 56 2 0 4 118936
a 56 34 0 4 78895
a 56 57 0 4 0
a 56 105 0 4 -100
a 57 12 0 4 117870
a 57 40 0 4 78659
a 57 58 0 4 0
a 57 115 0 4 -100
a 57 181 0 1 0
a 58 41 0 4 78619
a 58 59 0 4 0
a 58 116 0 4 -100
a 58 181 0 1 39199
a 59 42 0 4 78580
a 59 60 0 4 0
a 59 117 0 4 -100
a 59 181 0 1 100664
a 60 61 0 4 0
a 60 118 0 4 -100
a 60 181 0 1 138312
a 61 62 0 4 0
a 61 119 0 4 -100
a 61 181 0 1 197343
a 62 63 0 4 0
a 62 120 0 4 -100
a 62 181 0 1 233500
a 63 64 0 4 0
a 63 121 0 4 -100
a 63 181 0 1 290194
a 64 21 0 4 156204
a 64 43 0 4 77876
a 64 65 0 4 0
a 64 122 0 4 -100
a 64 181 0 1 324919
a 65 66 0 4 0
a 65 124 0 4 -100
a 65 174 0 1 0
a 66 67 0 4 0
a 66 125 0 4 -100
a 66 174 0 1 39199
a 67 68 0 4 0
a 67 126 0 4 -100
a 67 174 0 1 100664
a 68 69 0 4 0
a 68 127 0 4 -100
a 68 174 0 1 138312
a 69 70 0 4 0
a 69 128 0 4 -100
a 69 174 0 1 197343
a 70 71 0 4 0
a 70 129 0 4 -100
a 70 174 0 1 233500
a 71 72 0 4 0
a 71 130 0 4 -100
a 71 174 0 1 290194
a 72 73 0 4 0
a 72 131 0 4 -100
a 72 174 0 1 324919
a 73 74 0 4 0
a 73 132 0 4 -100
a 73 184 0 1 0
a 74 75 0 4 0
a 74 133 0 4 -100
a 74 184 0 1 39199
a 75 76 0 4 0
a 75 134 0 4 -100
a 75 184 0 1 100664
a 76 77 0 4 0
a 76 135 0 4 -100
a 76 184 0 1 138312
a 77 78 0 4 0
a 77 136 0 4 -100
a 77 184 0 1 197343
a 78 79 0 4 0
a 78 137 0 4 -100
a 78 184 0 1 233500
a 79 80 0 4 0
a 79 138 0 4 -100
a 79 184 0 1 290194
a 80 81 0 4 0
a 80 139 0 4 -100
a 80 184 0 1 324919
a 81 82 0 4 0
a 81 140 0 4 -100
a 81 184 0 1 379368
a 82 83 0 4 0
a 82 141 0 4 -100
a 82 184 0 1 412718
a 83 84 0 4 0
a 83 142 0 4 -100
a 83 184 0 1 465011
a 84 85 0 4 0
a 84 143 0 4 -100
a 84 184 0 1 497040
a 85 86 0 4 0
a 85 144 0 4 -100
a 85 184 0 1 547262
a 86 87 0 4 0
a 86 145 0 4 -100
a 86 184 0 1 578023
a 87 88 0 4 0
a 87 146 0 4 -100
a 87 184 0 1 626256
a 88 89 0 4 0
a 88 147 0 4 -100
a 88 184 0 1 655798
a 89 90 0 4 0
a 89 148 0 4 -100
a 89 184 0 1 702121
a 90 91 0 4 0
a 90 149 0 4 -100
a 90 184 0 1 730494
a 91 92 0 4 0
a 91 150 0 4 -100
a 91 184 0 1 774983
a 92 93 0 4 0
a 92 151 0 4 -100
a 92 184 0 1 802232
a 93 94 0 4 0
a 93 152 0 4 -100
a 93 184 0 1 844959
a 94 95 0 4 0
a 94 153 0 4 -100
a 94 184 0 1 871129
a 95 96 0 4 0
a 95 154 0 4 -100
a 95 184 0 1 912164
a 96 13 0 4 111561
a 96 22 0 4 150981
a 96 46 0 4 76410
a 96 97 0 4 0
a 96 155 0 4 -100
a 96 184 0 1 937298
a 97 173 0 4 -100
a 98 99 0 4 -100
a 99 98 0 4 19980
a 99 100 0 4 -100
a 100 99 0 4 9985
a 100 101 0 4 -100
a 101 100 0 4 9980
a 101 102 0 4 -100
a 102 101 0 4 9975
a 102 103 0 4 -100
a 103 102 0 4 9970
a 103 104 0 4 -100
a 104 103 0 4 9965
a 104 105 0 4 -100
a 105 104 0 4 9960
a 105 106 0 4 -100
a 106 105 0 4 9955
a 106 107 0 4 -100
a 107 106 0 4 9950
a 107 108 0 4 -100
a 108 107 0 4 9945
a 108 109 0 4 -100
a 109 108 0 4 9940
a 109 110 0 4 -100
a 110 109 0 4 9935
a 110 111 0 4 -100
a 111 110 0 4 49551
a 111 112 0 4 -100
a 112 111 0 4 78966
a 112 113 0 4 -100
a 113 112 0 4 19721
a 113 114 0 4 -100
a 114 113 0 4 9856
a 114 115 0 4 -100
a 115 114 0 4 9851
a 115 116 0 4 -100
a 116 115 0 4 9846
a 116 117 0 4 -100
a 117 116 0 4 9841
a 117 118 0 4 -100
a 118 117 0 4 9836
a 118 119 0 4 -100
a 119 118 0 4 9831
a 119 120 0 4 -100
a 120 119 0 4 9826
a 120 121 0 4 -100
a 121 120 0 4 9821
a 121 122 0 4 -100
a 122 121 0 4 9816
a 122 123 0 4 -100
a 123 122 0 4 107390
a 123 124 0 4 -100
a 124 123 0 4 58401
a 124 125 0 4 -100
a 125 124 0 4 9728
a 125 126 0 4 -100
a 126 125 0 4 9723
a 126 127 0 4 -100
a 127 126 0 4 9718
a 127 128 0 4 -100
a 128 127 0 4 9714
a 128 129 0 4 -100
a 129 128 0 4 9709
a 129 130 0 4 -100
a 130 129 0 4 9704
a 130 131 0 4 -100
a 131 130 0 4 9699
a 131 132 0 4 -100
a 132 131 0 4 9694
a 132 133 0 4 -100
a 133 132 0 4 9689
a 133 134 0 4 -100
a 134 133 0 4 9684
a 134 135 0 4 -100
a 135 134 0 4 9680
a 135 136 0 4 -100
a 136 135 0 4 9675
a 136 137 0 4 -100
a 137 136 0 4 9670
a 137 138 0 4 -100
a 138 137 0 4 9665
a 138 139 0 4 -100
a 139 138 0 4 9660
a 139 140 0 4 -100
a 140 139 0 4 9655
a 140 141 0 4 -100
a 141 140 0 4 9651
a 141 142 0 4 -100
a 142 141 0 4 9646
a 142 143 0 4 -100
a 143 142 0 4 9641
a 143 144 0 4 -100
a 144 143 0 4 9636
a 144 145 0 4 -100
a 145 144 0 4 9631
a 145 146 0 4 -100
a 146 145 0 4 9627
a 146 147 0 4 -100
a 147 146 0 4 9622
a 147 148 0 4 -100
a 148 147 0 4 9617
a 148 149 0 4 -100
a 149 148 0 4 9612
a 149 150 0 4 -100
a 150 149 0 4 9607
a 150 151 0 4 -100
a 151 150 0 4 9602
a 151 152 0 4 -100
a 152 151 0 4 9598
a 152 153 0 4 -100
a 153 152 0 4 9593
a 153 154 0 4 -100
a 154 153 0 4 9588
a 154 155 0 4 -100
a 155 154 0 4 9583
a 155 156 0 4 -100
a 156 155 0 4 66852
a 156 157 0 4 -100
a 157 156 0 4 9545
a 157 158 0 4 -100
a 158 157 0 4 9540
a 158 159 0 4 -100
a 159 158 0 4 9535
a 159 160 0 4 -100
a 160 159 0 4 9531
a 160 161 0 4 -100
a 161 160 0 4 188727
a 161 162 0 4 -100
a 162 161 0 4 9431
a 162 163 0 4 -100
a 163 162 0 4 9426
a 163 164 0 4 -100
a 164 163 0 4 9422
a 164 165 0 4 -100
a 165 164 0 4 9417
a 165 166 0 4 -100
a 166 165 0 4 37594
a 166 167 0 4 -100
a 167 166 0 4 74889
a 167 168 0 4 -100
a 168 167 0 4 111661
a 168 169 0 4 -100
a 169 168 0 4 9300
a 169 170 0 4 -100
a 170 169 0 4 9295
a 170 171 0 4 -100
a 171 170 0 4 18573
a 171 172 0 4 -100
a 172 171 0 4 110771
a 172 173 0 4 -100
a 173 172 0 4 18443
a 174 91 0 1 -330861
a 175 77 0 1 -136179
a 176 13 0 1 -216968
a 177 14 0 1 -120935
a 178 36 0 1 -239759
a 179 21 0 1 -236565
a 180 51 0 1 -210010
a 181 87 0 1 -374421
a 182 3 0 1 -259001
a 183 75 0 1 -394430
a 184 97 0 1 -969384
a 185 43 0 1 -221478
